C105

VEHICLE
NUMBER     CAPACITY
  25         200

CUSTOMER
CUST NO.   XCOORD.   YCOORD.   DEMAND    READY TIME   DUE DATE   SERVICE TIME
 
    0      40         50          0          0       1236          0   
    1      45         68         10        885        994         90   
    2      45         70         30        802        893         90   
    3      42         66         10         25        186         90   
    4      42         68         10        699        810         90   
    5      42         65         10         15        120         90   
    6      40         69         20        580        743         90   
    7      40         66         20        142        253         90   
    8      38         68         20        220        359         90   
    9      38         70         10        499        640         90   
   10      35         66         10        331        436         90   
  